c "55389.clq"
p edge 80 304
e 1 5
e 1 6
e 1 7
e 1 8
e 1 9
e 1 11
e 1 15
e 1 16
e 1 18
e 1 19
e 1 20
e 1 22
e 1 25
e 1 27
e 1 32
e 1 35
e 1 36
e 1 58
e 1 74
e 1 76
e 1 77
e 2 5
e 2 6
e 2 7
e 2 8
e 2 9
e 2 11
e 2 12
e 2 16
e 2 19
e 2 20
e 2 21
e 2 22
e 2 23
e 2 26
e 2 27
e 2 31
e 2 32
e 2 45
e 2 48
e 2 61
e 2 76
e 2 79
e 3 5
e 3 10
e 3 19
e 3 22
e 3 39
e 4 5
e 4 6
e 4 10
e 4 12
e 4 16
e 4 24
e 4 33
e 4 43
e 4 60
e 4 62
e 4 76
e 4 79
e 5 6
e 5 7
e 5 8
e 5 9
e 5 13
e 5 14
e 5 27
e 5 28
e 5 31
e 5 40
e 5 41
e 5 43
e 5 48
e 5 50
e 5 56
e 5 57
e 5 66
e 5 73
e 6 7
e 6 12
e 6 13
e 6 14
e 6 15
e 6 17
e 6 32
e 6 41
e 6 44
e 6 47
e 6 56
e 6 66
e 6 73
e 6 80
e 7 8
e 7 10
e 7 11
e 7 12
e 7 20
e 7 24
e 7 25
e 7 48
e 7 70
e 7 71
e 7 72
e 8 9
e 8 10
e 8 11
e 8 15
e 8 17
e 8 18
e 8 28
e 8 29
e 8 30
e 8 36
e 8 38
e 8 45
e 8 46
e 8 72
e 9 13
e 9 14
e 9 20
e 9 21
e 9 31
e 9 41
e 9 52
e 9 55
e 9 60
e 9 69
e 9 76
e 10 13
e 10 15
e 10 26
e 10 29
e 10 32
e 10 35
e 10 36
e 10 40
e 10 42
e 10 46
e 10 49
e 10 51
e 10 54
e 10 55
e 10 58
e 10 59
e 10 69
e 11 17
e 11 23
e 11 28
e 11 33
e 11 34
e 11 35
e 11 45
e 11 54
e 11 77
e 12 14
e 12 16
e 12 17
e 12 26
e 12 30
e 12 34
e 12 46
e 12 57
e 12 61
e 12 63
e 12 71
e 13 33
e 15 18
e 15 19
e 15 21
e 15 53
e 15 70
e 16 18
e 16 29
e 16 37
e 16 51
e 16 57
e 17 23
e 17 26
e 17 59
e 18 21
e 18 23
e 18 25
e 18 27
e 18 37
e 18 39
e 18 41
e 18 45
e 18 50
e 18 60
e 18 72
e 19 22
e 19 24
e 19 40
e 19 49
e 20 39
e 20 80
e 21 39
e 22 25
e 22 40
e 23 24
e 23 34
e 23 38
e 23 59
e 23 62
e 24 33
e 24 65
e 25 38
e 25 43
e 25 46
e 25 58
e 25 68
e 26 35
e 26 37
e 26 43
e 26 51
e 26 53
e 26 62
e 26 63
e 26 65
e 26 67
e 26 68
e 26 74
e 27 28
e 27 29
e 27 30
e 27 31
e 27 34
e 27 42
e 27 44
e 27 58
e 27 68
e 28 30
e 28 44
e 28 47
e 28 48
e 28 59
e 28 63
e 28 65
e 29 49
e 29 56
e 29 78
e 30 38
e 30 52
e 30 56
e 30 68
e 31 36
e 32 42
e 32 53
e 32 67
e 32 75
e 33 74
e 33 79
e 34 37
e 34 44
e 34 50
e 34 60
e 34 62
e 34 64
e 34 72
e 34 75
e 35 47
e 35 69
e 36 57
e 36 70
e 36 80
e 37 51
e 37 75
e 38 42
e 38 55
e 38 61
e 39 52
e 39 78
e 40 54
e 41 66
e 41 71
e 41 79
e 42 47
e 42 49
e 42 52
e 44 65
e 44 67
e 45 61
e 45 69
e 45 78
e 46 50
e 47 63
e 47 66
e 48 53
e 48 55
e 48 64
e 52 64
e 52 74
e 53 54
e 53 67
e 55 64
e 56 71
e 57 75
e 61 77
e 63 80
e 67 70
e 68 77
e 70 73
e 71 73
e 76 78
